************************************************************************
file with basedata            : mm42_.bas
initial value random generator: 482803500
************************************************************************
projects                      :  1
jobs (incl. supersource/sink ):  12
horizon                       :  80
RESOURCES
  - renewable                 :  2   R
  - nonrenewable              :  2   N
  - doubly constrained        :  0   D
************************************************************************
PROJECT INFORMATION:
pronr.  #jobs rel.date duedate tardcost  MPM-Time
    1     10      0       10        1       10
************************************************************************
PRECEDENCE RELATIONS:
jobnr.    #modes  #successors   successors
   1        1          3           2   3   4
   2        3          2           6   7
   3        3          3           5   7   8
   4        3          2           7  11
   5        3          1          11
   6        3          2           8  10
   7        3          1           9
   8        3          1           9
   9        3          1          12
  10        3          1          12
  11        3          1          12
  12        1          0        
************************************************************************
REQUESTS/DURATIONS:
jobnr. mode duration  R 1  R 2  N 1  N 2
------------------------------------------------------------------------
  1      1     0       0    0    0    0
  2      1     3       8   10    4    0
         2     4       6    9    0    1
         3     6       3    9    4    0
  3      1     4       6    4    0    6
         2     5       5    3    3    0
         3    10       4    3    0    2
  4      1     3       2    6    7    0
         2     3       2    8    0    6
         3     7       1    3    7    0
  5      1     3       9    8    8    0
         2     3       9    8    0    6
         3     7       8    1    5    0
  6      1     1       8    4    0    6
         2     2       6    3    0    3
         3     4       4    3    6    0
  7      1     2      10    9    9    0
         2     5       9    9    0    6
         3     8       9    8    0    4
  8      1     3       8    6   10    0
         2     4       8    4    0    5
         3    10       5    3   10    0
  9      1     1      10    7    0    6
         2     2      10    5    0    5
         3     9       9    4    3    0
 10      1     2       9    6    3    0
         2     7       8    4    0    8
         3    10       4    4    0    6
 11      1     3       8    8    8    0
         2     7       6    8    5    0
         3     9       5    8    0    4
 12      1     0       0    0    0    0
************************************************************************
RESOURCEAVAILABILITIES:
  R 1  R 2  N 1  N 2
   23   19   31   27
************************************************************************
MAXIMAL LAGS:
from  to  type  delay
    1   12   ES      0
    1    2   ES      0
    2   12   ES      0
    1    3   ES      0
    3   12   ES      0
    1    4   ES      0
    4   12   ES      0
    1    5   ES      0
    5   12   ES      0
    1    6   ES      0
    6   12   ES      0
    1    7   ES      0
    7   12   ES      0
    1    8   ES      0
    8   12   ES      0
    1    9   ES      0
    9   12   ES      0
    1   10   ES      0
   10   12   ES      0
    1   11   ES      0
   11   12   ES      0
    1   12   ES      0
    2    6   SS      0
    2    6   SE     12
    2    6   ES      1
    2    6   EE     -6
    2    7   SS      0
    2    7   SE     -2
    2    7   ES    -10
    2    7   EE     -2
    3    5   SS     -2
    3    5   SE      7
    3    5   ES      3
    3    5   EE     -6
    3    7   SS     10
    3    7   SE     11
    3    7   ES      3
    3    7   EE     -9
    3    8   SS     -4
    3    8   SE      2
    3    8   ES    -11
    3    8   EE      5
    4    7   SS     -8
    4    7   SE      3
    4    7   ES     -8
    4    7   EE      8
    4   11   SS     -6
    4   11   SE     -2
    4   11   ES      6
    4   11   EE    -11
    5   11   SS      7
    5   11   SE     12
   11    5   SE      0
    5   11   ES      0
    5   11   EE    -11
    6    8   SS     -1
    6    8   SE      1
    6    8   ES      3
    6    8   EE     -6
    6   10   SS    -11
    6   10   SE     -6
    6   10   ES    -12
    6   10   EE     12
    7    9   SS      9
    7    9   SE      1
    7    9   ES     -4
    7    9   EE     -4
    8    9   SS      8
    8    9   SE     -7
    8    9   ES    -10
    8    9   EE     -8
************************************************************************
